#######################################
### Exact MIP solver for the HHCRSP ###
#######################################
-- Instance file: new-instances/HHCRSP_100_20_17_1.0_C_C.txt
-- Max threads: 4
-- Time limit: 999999 seconds
-- Use initial solution: No
Trivial flow violations prevented generating 45041 variables.
Model exported.
Version identifier: 20.1.0.0 | 2020-11-10 | 9bedb6d68
CPXPARAM_Threads                                 4
CPXPARAM_TimeLimit                               999999
Parallel mode: deterministic, using up to 4 threads for concurrent optimization:
 * Starting dual Simplex on 1 thread...
 * Starting Barrier on 3 threads...
Tried aggregator 1 time.
LP Presolve eliminated 5298 rows and 1333 columns.
Reduced LP has 50092 rows, 48084 columns, and 564339 nonzeros.
Presolve time = 0.50 sec. (147.50 ticks)
Symmetry aggregator did 52655 additional substitutions.

Iteration log . . .
Iteration:     1   Dual objective     =             0.000000
Iteration:   511   Dual objective     =           135.666667

Dual crossover.
  Dual:  Fixing 282 variables.
      281 DMoves:  Infeasibility  8.74300674e-14  Objective  1.36000000e+02
        0 DMoves:  Infeasibility  6.71684972e-14  Objective  1.36000000e+02
  Dual:  Pushed 17, exchanged 265.
  Primal:  Fixing 96 variables.
       95 PMoves:  Infeasibility  1.66533454e-16  Objective  1.36000000e+02
        0 PMoves:  Infeasibility  3.33066907e-16  Objective  1.36000000e+02
  Primal:  Pushed 60, exchanged 36.

Dual simplex solved model.


Solution status from MIP model:
-- Processing time: 0.789 sec.
-- Memory used: 118.231 MB
-- Best bound: inf
-- Obj value: 136
-- Gap: inf%
-- Total distance: 408
-- Total tardiness: 0
-- Largest tardiness: 0
